<number of tasks>
20

<cycle time>
1000

<order strength>
0,805


<task times>
1 115
2 135
3 159
4 174
5 236
6 214
7 184
8 179
9 201
10 88
11 86
12 268
13 45
14 60
15 148
16 230
17 208
18 226
19 309
20 256

<precedence relations>
1,4
2,3
2,4
3,5
3,6
4,5
4,6
5,7
5,8
5,10
6,8
6,9
6,10
7,12
8,12
8,14
8,15
9,11
10,11
11,12
11,13
11,14
12,18
13,15
13,18
14,16
15,19
16,17
16,18
18,19
18,20

<end>
